benchmarks/VRPTW/TSPTW/solution/n80w40.001.txt.solution
1 6 57 39 52 61 55 62 28 51 18 54 20 5 7 35 25 34 14 10 15 31 71 46 70 4 72 73 50 21 67 37 65 69 79 9 58 49 26 13 30 59 56 42 43 36 22 16 80 60 53 33 2 8 74 48 45 27 63 76 75 29 11 17 47 32 77 44 40 19 38 64 66 3 41 24 68 78 12 81 23 
606
